Minimize
  - 41 y_0 - 22 y_1 - 30 y_2 - 43 y_3 - 43 y_4 - 49 y_5 - 19 y_6 - 35 y_7
   - 32 y_8 - 65 y_9 - 65 y_10 - 63 y_11 - 39 y_12 - 36 y_13 - 62 y_14
   - 31 y_15 - 49 y_16 - 40 y_17 - 66 y_18 + 38 x_0_1 + 67 x_0_2 + 84 x_0_3
   + 64 x_0_4 + 23 x_0_5 + 46 x_0_7 + 38 x_0_8 + 57 x_0_9 + 55 x_0_11
   + 35 x_0_12 + 57 x_0_13 + 56 x_0_14 + 34 x_0_15 + 17 x_0_16 + 10 x_0_17
   + 82 x_0_19 + 38 x_1_0 + 49 x_1_2 + 75 x_1_3 + 64 x_1_4 + 56 x_1_5
   + 22 x_1_6 + 43 x_1_7 + 30 x_1_8 + 90 x_1_9 + 90 x_1_10 + 50 x_1_13
   + 55 x_1_16 + 38 x_1_17 + 92 x_1_18 + 27 x_2_3 + 29 x_2_4 + 29 x_2_6
   + 24 x_2_7 + 91 x_2_9 + 86 x_2_10 + 85 x_2_11 + 89 x_2_12 + 17 x_2_13
   + 79 x_2_14 + 33 x_2_15 + 76 x_2_16 + 88 x_2_18 + 23 x_3_4 + 56 x_3_6
   + 38 x_3_7 + 104 x_3_8 + 91 x_3_9 + 84 x_3_10 + 28 x_3_13 + 53 x_3_15
   + 89 x_3_16 + 75 x_3_17 + 86 x_3_19 + 50 x_4_6 + 69 x_4_9 + 15 x_4_13
   + 56 x_4_14 + 37 x_4_15 + 67 x_4_16 + 55 x_4_17 + 86 x_4_19 + 63 x_5_6
   + 44 x_5_7 + 61 x_5_8 + 31 x_5_11 + 54 x_5_13 + 32 x_5_14 + 39 x_5_15
   + 19 x_5_17 + 37 x_5_18 + 99 x_5_19 + 32 x_6_7 + 52 x_6_8 + 94 x_6_9
   + 91 x_6_10 + 64 x_6_12 + 35 x_6_13 + 85 x_6_14 + 66 x_6_16 + 39 x_6_19
   + 68 x_7_8 + 63 x_7_10 + 61 x_7_11 + 74 x_7_12 + 53 x_7_16 + 37 x_7_17
   + 71 x_7_19 + 95 x_8_9 + 97 x_8_10 + 15 x_8_12 + 77 x_8_13 + 93 x_8_14
   + 98 x_8_18 + 64 x_8_19 + 9 x_9_10 + 6 x_9_11 + 89 x_9_12 + 69 x_9_15
   + 42 x_9_16 + 53 x_9_17 + 7 x_9_18 + 131 x_9_19 + 69 x_10_13 + 6 x_10_14
   + 66 x_10_15 + 46 x_10_16 + 54 x_10_17 + 3 x_10_18 + 88 x_11_12
   + 68 x_11_13 + 7 x_11_14 + 40 x_11_16 + 50 x_11_17 + 126 x_11_19
   + 84 x_12_13 + 90 x_12_14 + 59 x_12_15 + 47 x_12_16 + 44 x_12_17
   + 94 x_12_18 + 63 x_13_14 + 63 x_13_16 + 48 x_13_17 + 72 x_13_18
   + 60 x_14_15 + 50 x_14_17 + 123 x_14_19 + 26 x_15_17 + 69 x_15_18
   + 63 x_15_19 + 46 x_16_18 + 81 x_17_19 + 830 Constant
Subject To
 c_0: y_19 = 1
 c_1_0: y_0 >= 1
 c_1_1: y_1 >= 1
 c_1_2: y_2 >= 1
 c_1_3: y_3 >= 1
 c_1_4: y_4 >= 1
 c_1_5: y_5 >= 1
 c_1_6: y_6 >= 1
 c_1_7: y_7 >= 1
 c_1_8: y_8 >= 1
 c_1_9: y_9 >= 1
 c_1_10: y_10 >= 1
 c_1_11: y_11 >= 1
 c_1_12: y_12 >= 1
 c_1_13: y_13 >= 1
 c_1_14: y_14 >= 1
 c_1_15: y_15 >= 1
 c_1_16: y_16 >= 1
 c_1_17: y_17 >= 1
 c_1_18: y_18 >= 1
 c_1_19: y_19 >= 1
 c_2_0: - 2 y_0 + x_0_2 + x_0_3 + x_0_4 + x_0_5 + x_0_7 + x_0_8 + x_0_9
   + x_0_11 + x_0_12 + x_0_13 + x_0_14 + x_0_15 + x_0_16 + x_0_17 + x_0_19
   + 2 x_1_0 = 0
 c_2_1: - 2 y_1 + 2 x_1_0 + x_1_2 + x_1_3 + x_1_4 + x_1_5 + x_1_6 + x_1_7
   + x_1_8 + x_1_9 + x_1_10 + x_1_13 + x_1_16 + x_1_17 + x_1_18 = 0
 c_2_2: - 2 y_2 + x_0_2 + x_1_2 + x_2_3 + x_2_4 + x_2_6 + x_2_7 + x_2_9
   + x_2_10 + x_2_11 + x_2_12 + x_2_13 + x_2_14 + x_2_15 + x_2_16 + x_2_18
   = 0
 c_2_3: - 2 y_3 + x_0_3 + x_1_3 + x_2_3 + x_3_4 + x_3_6 + x_3_7 + x_3_8
   + x_3_9 + x_3_10 + x_3_13 + x_3_15 + x_3_16 + x_3_17 + x_3_19 = 0
 c_2_4: - 2 y_4 + x_0_4 + x_1_4 + x_2_4 + x_3_4 + x_4_6 + x_4_9 + x_4_13
   + x_4_14 + x_4_15 + x_4_16 + x_4_17 + x_4_19 = 0
 c_2_5: - 2 y_5 + x_0_5 + x_1_5 + x_5_6 + x_5_7 + x_5_8 + x_5_11 + x_5_13
   + x_5_14 + x_5_15 + x_5_17 + x_5_18 + x_5_19 = 0
 c_2_6: - 2 y_6 + x_1_6 + x_2_6 + x_3_6 + x_4_6 + x_5_6 + x_6_7 + x_6_8
   + x_6_9 + x_6_10 + x_6_12 + x_6_13 + x_6_14 + x_6_16 + x_6_19 = 0
 c_2_7: - 2 y_7 + x_0_7 + x_1_7 + x_2_7 + x_3_7 + x_5_7 + x_6_7 + x_7_8
   + x_7_10 + x_7_11 + x_7_12 + x_7_16 + x_7_17 + x_7_19 = 0
 c_2_8: - 2 y_8 + x_0_8 + x_1_8 + x_3_8 + x_5_8 + x_6_8 + x_7_8 + x_8_9
   + x_8_10 + x_8_12 + x_8_13 + x_8_14 + x_8_18 + x_8_19 = 0
 c_2_9: - 2 y_9 + x_0_9 + x_1_9 + x_2_9 + x_3_9 + x_4_9 + x_6_9 + x_8_9
   + x_9_10 + x_9_11 + x_9_12 + x_9_15 + x_9_16 + x_9_17 + x_9_18 + x_9_19
   = 0
 c_2_10: - 2 y_10 + x_1_10 + x_2_10 + x_3_10 + x_6_10 + x_7_10 + x_8_10
   + x_9_10 + x_10_13 + x_10_14 + x_10_15 + x_10_16 + x_10_17 + x_10_18
   = 0
 c_2_11: - 2 y_11 + x_0_11 + x_2_11 + x_5_11 + x_7_11 + x_9_11 + x_11_12
   + x_11_13 + x_11_14 + x_11_16 + x_11_17 + x_11_19 = 0
 c_2_12: - 2 y_12 + x_0_12 + x_2_12 + x_6_12 + x_7_12 + x_8_12 + x_9_12
   + x_11_12 + x_12_13 + x_12_14 + x_12_15 + x_12_16 + x_12_17 + x_12_18
   = 0
 c_2_13: - 2 y_13 + x_0_13 + x_1_13 + x_2_13 + x_3_13 + x_4_13 + x_5_13
   + x_6_13 + x_8_13 + x_10_13 + x_11_13 + x_12_13 + x_13_14 + x_13_16
   + x_13_17 + x_13_18 = 0
 c_2_14: - 2 y_14 + x_0_14 + x_2_14 + x_4_14 + x_5_14 + x_6_14 + x_8_14
   + x_10_14 + x_11_14 + x_12_14 + x_13_14 + x_14_15 + x_14_17 + x_14_19
   = 0
 c_2_15: - 2 y_15 + x_0_15 + x_2_15 + x_3_15 + x_4_15 + x_5_15 + x_9_15
   + x_10_15 + x_12_15 + x_14_15 + x_15_17 + x_15_18 + x_15_19 = 0
 c_2_16: - 2 y_16 + x_0_16 + x_1_16 + x_2_16 + x_3_16 + x_4_16 + x_6_16
   + x_7_16 + x_9_16 + x_10_16 + x_11_16 + x_12_16 + x_13_16 + x_16_18 = 0
 c_2_17: - 2 y_17 + x_0_17 + x_1_17 + x_3_17 + x_4_17 + x_5_17 + x_7_17
   + x_9_17 + x_10_17 + x_11_17 + x_12_17 + x_13_17 + x_14_17 + x_15_17
   + x_17_19 = 0
 c_2_18: - 2 y_18 + x_1_18 + x_2_18 + x_5_18 + x_8_18 + x_9_18 + x_10_18
   + x_12_18 + x_13_18 + x_15_18 + x_16_18 = 0
 c_2_19: - 2 y_19 + x_0_19 + x_3_19 + x_4_19 + x_5_19 + x_6_19 + x_7_19
   + x_8_19 + x_9_19 + x_11_19 + x_14_19 + x_15_19 + x_17_19 = 0
Bounds
 Constant = 1
Binaries
 y_0 y_1 y_2 y_3 y_4 y_5 y_6 y_7 y_8 y_9 y_10 y_11 y_12 y_13 y_14 y_15 y_16
 y_17 y_18 y_19 x_0_1 x_0_2 x_0_3 x_0_4 x_0_5 x_0_7 x_0_8 x_0_9 x_0_11
 x_0_12 x_0_13 x_0_14 x_0_15 x_0_16 x_0_17 x_0_19 x_1_0 x_1_2 x_1_3 x_1_4
 x_1_5 x_1_6 x_1_7 x_1_8 x_1_9 x_1_10 x_1_13 x_1_16 x_1_17 x_1_18 x_2_3
 x_2_4 x_2_6 x_2_7 x_2_9 x_2_10 x_2_11 x_2_12 x_2_13 x_2_14 x_2_15 x_2_16
 x_2_18 x_3_4 x_3_6 x_3_7 x_3_8 x_3_9 x_3_10 x_3_13 x_3_15 x_3_16 x_3_17
 x_3_19 x_4_6 x_4_9 x_4_13 x_4_14 x_4_15 x_4_16 x_4_17 x_4_19 x_5_6 x_5_7
 x_5_8 x_5_11 x_5_13 x_5_14 x_5_15 x_5_17 x_5_18 x_5_19 x_6_7 x_6_8 x_6_9
 x_6_10 x_6_12 x_6_13 x_6_14 x_6_16 x_6_19 x_7_8 x_7_10 x_7_11 x_7_12
 x_7_16 x_7_17 x_7_19 x_8_9 x_8_10 x_8_12 x_8_13 x_8_14 x_8_18 x_8_19
 x_9_10 x_9_11 x_9_12 x_9_15 x_9_16 x_9_17 x_9_18 x_9_19 x_10_13 x_10_14
 x_10_15 x_10_16 x_10_17 x_10_18 x_11_12 x_11_13 x_11_14 x_11_16 x_11_17
 x_11_19 x_12_13 x_12_14 x_12_15 x_12_16 x_12_17 x_12_18 x_13_14 x_13_16
 x_13_17 x_13_18 x_14_15 x_14_17 x_14_19 x_15_17 x_15_18 x_15_19 x_16_18
 x_17_19
End
